R101

VEHICLE
NUMBER     CAPACITY
  25         200

CUSTOMER
CUST NO.   XCOORD.   YCOORD.    DEMAND   READY TIME   DUE DATE   SERVICE TIME
 
    0          35      35           0       0         230           0
    1          41      49          10     161         171          10
    2          35      17           7      50          60          10
    3          55      45          13     116         126          10
    4          55      20          19     149         159          10
    5          15      30          26      34          44          10
    6          25      30           3      99         109          10
    7          20      50           5      81          91          10
    8          10      43           9      95         105          10
    9          55      60          16      97         107          10
   10          30      60          16     124         134          10
   